(set-info :smt-lib-version 2.6)
(set-logic QF_UFLRA)
(set-info :source |
MathSat group

|)
(set-info :category "random")
(set-info :status sat)
(declare-fun x0 () Real)
(declare-fun x1 () Real)
(declare-fun x2 () Real)
(declare-fun x3 () Real)
(declare-fun x4 () Real)
(declare-fun x5 () Real)
(declare-fun x6 () Real)
(declare-fun x7 () Real)
(declare-fun x8 () Real)
(declare-fun x9 () Real)
(declare-fun x10 () Real)
(declare-fun x11 () Real)
(declare-fun x12 () Real)
(declare-fun x13 () Real)
(declare-fun x14 () Real)
(declare-fun x15 () Real)
(declare-fun x16 () Real)
(declare-fun x17 () Real)
(declare-fun x18 () Real)
(declare-fun x19 () Real)
(declare-fun x20 () Real)
(declare-fun x21 () Real)
(declare-fun x22 () Real)
(declare-fun x23 () Real)
(declare-fun x24 () Real)
(declare-fun x25 () Real)
(declare-fun x26 () Real)
(declare-fun x27 () Real)
(declare-fun x28 () Real)
(declare-fun x29 () Real)
(declare-fun x30 () Real)
(declare-fun x31 () Real)
(declare-fun x32 () Real)
(declare-fun x33 () Real)
(declare-fun x34 () Real)
(declare-fun x35 () Real)
(declare-fun x36 () Real)
(declare-fun x37 () Real)
(declare-fun x38 () Real)
(declare-fun x39 () Real)
(declare-fun f0_1 (Real) Real)
(declare-fun f0_2 (Real Real) Real)
(declare-fun f0_3 (Real Real Real) Real)
(declare-fun f0_4 (Real Real Real Real) Real)
(declare-fun P0 () Bool)
(declare-fun P1 () Bool)
(declare-fun P2 () Bool)
(declare-fun P3 () Bool)
(declare-fun P4 () Bool)
(declare-fun P5 () Bool)
(declare-fun P6 () Bool)
(declare-fun P7 () Bool)
(declare-fun P8 () Bool)
(declare-fun P9 () Bool)
(declare-fun P10 () Bool)
(declare-fun P11 () Bool)
(declare-fun P12 () Bool)
(declare-fun P13 () Bool)
(declare-fun P14 () Bool)
(declare-fun P15 () Bool)
(declare-fun P16 () Bool)
(declare-fun P17 () Bool)
(declare-fun P18 () Bool)
(declare-fun P19 () Bool)
(declare-fun P20 () Bool)
(declare-fun P21 () Bool)
(declare-fun P22 () Bool)
(declare-fun P23 () Bool)
(declare-fun P24 () Bool)
(declare-fun P25 () Bool)
(declare-fun P26 () Bool)
(declare-fun P27 () Bool)
(declare-fun P28 () Bool)
(declare-fun P29 () Bool)
(declare-fun P30 () Bool)
(declare-fun P31 () Bool)
(declare-fun P32 () Bool)
(declare-fun P33 () Bool)
(declare-fun P34 () Bool)
(declare-fun P35 () Bool)
(declare-fun P36 () Bool)
(declare-fun P37 () Bool)
(declare-fun P38 () Bool)
(declare-fun P39 () Bool)
(assert (let ((?v_43 (<= (- (- (* 23 x31) (* 41 x6)) (* 29 x17)) 9)) (?v_169 (* 21 x13))) (let ((?v_83 (<= (- (+ (* 44 x11) ?v_169) (* 37 x15)) 19)) (?v_170 (* 2 x32))) (let ((?v_185 (< (+ (- (* 9 x12) (* 53 x37)) ?v_170) 41)) (?v_78 (< (- (+ (* 28 x26) (* 42 x8)) (* 26 x34)) 26)) (?v_175 (< (- (+ ?v_169 ?v_170) (* 5 x1)) 10)) (?v_28 (<= (- (- (* 18 x27) (* 56 x30)) (* 15 x22)) 11)) (?v_47 (* 42 x23)) (?v_189 (distinct (+ (- (* 41 x24) (* 27 x11)) (* 6 x6)) 32)) (?v_22 (<= (- (- (* 10 x9) (* 42 x12)) (* 23 x38)) 0)) (?v_62 (= (+ (- (* 46 x35) (* 30 x27)) (* 32 x10)) 55)) (?v_194 (distinct (- (+ (* 34 x9) (* 39 x31)) (* 34 x29)) 14)) (?v_25 (f0_1 x13))) (let ((?v_113 (distinct ?v_25 (f0_2 x33 x0))) (?v_140 (= (f0_2 x33 x16) x26)) (?v_123 (distinct x16 (f0_2 x26 x28))) (?v_103 (= (f0_2 x3 x36) x10)) (?v_11 (f0_1 x34))) (let ((?v_6 (= x17 ?v_11)) (?v_16 (= ?v_11 (f0_1 x6))) (?v_106 (= (f0_1 x3) x24)) (?v_18 (f0_1 x39))) (let ((?v_37 (= x16 ?v_18)) (?v_29 (f0_1 x12)) (?v_96 (f0_1 x8))) (let ((?v_141 (= ?v_29 ?v_96)) (?v_63 (distinct (f0_1 x25) (f0_2 x8 x38))) (?v_110 (= (f0_1 x28) (f0_2 x28 x8))) (?v_51 (= x36 x20)) (?v_8 (= x37 (f0_2 x7 x16))) (?v_74 (= (f0_2 x1 x26) (f0_2 x32 x34))) (?v_145 (distinct x15 ?v_25)) (?v_100 (distinct (f0_1 x1) (f0_1 x4))) (?v_109 (distinct (f0_2 x37 x26) x28)) (?v_82 (distinct x6 (f0_2 x37 x5))) (?v_91 (= x1 ?v_18)) (?v_17 (distinct x2 x21)) (?v_95 (f0_1 x32))) (let ((?v_101 (= ?v_95 ?v_96)) (?v_56 (distinct (f0_2 x30 x2) (f0_1 x22))) (?v_163 (distinct x25 (f0_2 x32 x0))) (?v_13 (distinct (f0_2 x35 x29) (f0_1 x19))) (?v_129 (distinct (f0_2 x27 x20) x25)) (?v_60 (distinct x34 x22)) (?v_24 (= (f0_1 x27) x25)) (?v_191 (distinct ?v_95 (f0_2 x17 x34))) (?v_130 (= x38 (f0_2 x27 x23))) (?v_21 (f0_1 x5))) (let ((?v_162 (= (f0_1 x33) ?v_21)) (?v_15 (distinct x20 (f0_2 x33 x19))) (?v_40 (= x15 (f0_1 x26))) (?v_58 (distinct x38 (f0_2 x36 x30))) (?v_59 (= x6 ?v_29)) (?v_27 (distinct ?v_21 (f0_1 x17))) (?v_171 (= x29 x34)) (?v_46 (distinct ?v_25 (f0_2 x1 x9))) (?v_142 (distinct (f0_2 x8 x13) (f0_2 x31 x23))) (?v_72 (distinct ?v_11 x35)) (?v_52 (= ?v_29 (f0_2 x20 x30))) (?v_1 (not P29)) (?v_190 (not ?v_8)) (?v_32 (not P16)) (?v_180 (not ?v_78)) (?v_69 (not P34)) (?v_132 (not P27)) (?v_10 (not P33)) (?v_2 (not P37)) (?v_44 (not P24))) (let ((?v_39 (not ?v_15)) (?v_14 (not ?v_189)) (?v_23 (not P17)) (?v_117 (not P30)) (?v_41 (not P5)) (?v_4 (not P8)) (?v_19 (not ?v_24)) (?v_121 (not P10)) (?v_49 (not P31)) (?v_9 (not ?v_6)) (?v_181 (not ?v_162)) (?v_76 (not P18)) (?v_93 (not P35)) (?v_77 (not ?v_16)) (?v_45 (not ?v_163)) (?v_125 (not ?v_17)) (?v_65 (not ?v_145)) (?v_30 (not P12)) (?v_66 (not ?v_191)) (?v_48 (not P14)) (?v_86 (not ?v_109)) (?v_42 (not P25)) (?v_71 (not ?v_91)) (?v_174 (not P20)) (?v_134 (not ?v_28)) (?v_114 (not ?v_130)) (?v_203 (not ?v_40)) (?v_143 (not ?v_106)) (?v_111 (not ?v_171)) (?v_94 (not ?v_46)) (?v_57 (not ?v_37)) (?v_104 (not ?v_142)) (?v_167 (not ?v_83)) (?v_64 (not ?v_51)) (?v_99 (not P28)) (?v_70 (not P21)) (?v_85 (not P7)) (?v_136 (not P9)) (?v_105 (not ?v_113)) (?v_166 (not ?v_22)) (?v_126 (not ?v_58)) (?v_97 (not ?v_59)) (?v_153 (not ?v_60)) (?v_152 (not ?v_56)) (?v_158 (not ?v_185)) (?v_73 (not ?v_62)) (?v_137 (not ?v_63)) (?v_207 (not P32)) (?v_155 (not ?v_27)) (?v_87 (not P2)) (?v_178 (not P6)) (?v_81 (not P38)) (?v_89 (not ?v_72)) (?v_200 (not ?v_52)) (?v_124 (not ?v_82)) (?v_187 (not P26)) (?v_168 (not ?v_13)) (?v_115 (not ?v_43)) (?v_139 (not ?v_101)) (?v_154 (not P39)) (?v_107 (not ?v_100)) (?v_151 (not ?v_110)) (?v_150 (not ?v_103)) (?v_149 (not P11)) (?v_128 (not ?v_123)) (?v_133 (not P3)) (?v_146 (not ?v_74)) (?v_159 (not P4)) (?v_138 (not ?v_140)) (?v_165 (not P19)) (?v_160 (not ?v_129)) (?v_179 (not P22)) (?v_176 (not P0)) (?v_182 (not ?v_175)) (?v_177 (not P36)) (?v_202 (not P15)) (?v_193 (not P1)) (?v_201 (not P23)) (?v_198 (not ?v_194)) (?v_204 (not ?v_141)) (?v_205 (not P13)) (?v_206 (< (+ (* 42 x38) (* 12 x39) (* 42 x1)) 45)) (?v_80 (<= (+ (* 14 x30) x4 (* 21 x6)) 46))) (let ((?v_31 (not ?v_80)) (?v_164 (< (+ (* 24 x14) (* 51 x31) ?v_47) 39))) (let ((?v_183 (not ?v_164)) (?v_144 (< (- (- (* 11 x38) 0) (* 49 x19)) 41)) (?v_116 (<= (+ (* 5 x26) (* 16 x28) (* 55 x4)) 53))) (let ((?v_98 (not ?v_116)) (?v_172 (not ?v_144)) (?v_3 (<= (+ (* (- 21) x35) (* 46 x11) (* 31 x28)) 24))) (let ((?v_0 (not ?v_3)) (?v_127 (< (+ (* (- 34) x21) (* 41 x28) (* 16 x22)) (- 14)))) (let ((?v_20 (not ?v_127)) (?v_26 (= (+ (- (* (- 23) x20) (* 19 x7)) (* 25 x20)) (- 24)))) (let ((?v_12 (not ?v_26)) (?v_34 (<= (+ (- (* 49 x38) (* 29 x35)) (* 11 x14)) (- 20))) (?v_38 (distinct (- (- (* (- 36) x28) (* 53 x15)) (* 19 x31)) (- 20))) (?v_5 (< (+ (- (* (- 50) x1) (* 36 x39)) (* 23 x35)) (- 54)))) (let ((?v_7 (not ?v_5)) (?v_156 (< (+ (- (* (- 27) x34) (* 41 x15)) (* 6 x14)) (- 37))) (?v_157 (<= (+ (- (* (- 25) x24) (* 31 x15)) (* 20 x9)) 24)) (?v_79 (<= (+ (- (* (- 29) x14) (* 20 x37)) (* 55 x10)) (- 40)))) (let ((?v_35 (not ?v_79)) (?v_54 (distinct (- (- (* (- 17) x16) (* 19 x38)) (* 55 x12)) (- 55))) (?v_55 (= (- (- (* 14 x8) (* 32 x21)) (* 5 x31)) (- 10)))) (let ((?v_33 (not ?v_55)) (?v_68 (<= (- (+ (* (- 29) x16) (* 49 x21)) (* 37 x18)) (- 50))) (?v_36 (= (- (- (* (- 51) x25) (* 44 x31)) ?v_47) 32)) (?v_53 (<= (- (* 10 x33) (* 54 x13)) (- 36)))) (let ((?v_188 (not ?v_53)) (?v_108 (not ?v_36)) (?v_67 (<= (+ (* 42 x3) (* 55 x29) (* 30 x26)) (- 32))) (?v_84 (<= (- (- x19 (* 4 x13)) (* 55 x20)) (- 21))) (?v_61 (<= (- (+ (* (- 5) x23) (* 6 x23)) (* 40 x3)) 9)) (?v_50 (< (- (- (* (- 28) x1) (* 7 x16)) (* 49 x5)) 6))) (let ((?v_102 (not ?v_50)) (?v_75 (< (+ (* (- 47) x9) (* 34 x6)) 3)) (?v_147 (not ?v_54)) (?v_199 (= (- (+ (* (- 43) x39) (* 21 x18)) (* 5 x7)) (- 31)))) (let ((?v_122 (not ?v_199)) (?v_90 (<= (- (- (* (- 22) x18) (* 27 x25)) (* 23 x21)) 0))) (let ((?v_88 (not ?v_90)) (?v_92 (<= (+ (* (- 24) x36) (* 23 x24) (* 12 x28)) (- 39)))) (let ((?v_118 (not ?v_92)) (?v_195 (not ?v_68)) (?v_112 (not ?v_84)) (?v_120 (<= (+ (- (* (- 5) x30) 0) x34) (- 15))) (?v_119 (< (- (+ (* (- 7) x21) (* 4 x36)) (* 12 x10)) 45))) (let ((?v_135 (not ?v_119)) (?v_186 (not ?v_120)) (?v_131 (< (- (+ (* (- 19) x5) (* 37 x5)) (* 38 x33)) 57)) (?v_173 (not ?v_38))) (let ((?v_148 (not ?v_131)) (?v_184 (not ?v_156)) (?v_161 (not ?v_157)) (?v_197 (not ?v_61)) (?v_192 (not ?v_75)) (?v_196 (not ?v_34))) (and (and (and (and (and (and (and (and (and (and (and (and (and (and (and (and (and (and (and (and (and (and (and (and (and (and (and (and (and (and (and (and (and (and (and (and (and (and (and (and (and (and (and (and (and (and (and (and (and (and (and (and (and (and (and (and (and (and (and (and (and (and (and (and (and (and (and (and (and (and (and (and (and (and (and (and (and (and (and (and (and (and (and (and (and (and (and (and (and (and (and (and (and (and (and (and (and (and (and (and (and (and (and (and (and (and (and (and (and (and (and (and (and (and (and (and (and (and (and (and (and (and (and (and (and (and (and (and (and (and (and (and (and (and (and (and (and (and (and (and (and (and (and (and (and (and (and (and (and (and (and (and (and (and (and (and (and (and (and (and (and (and (and (and (and (and (and (and (and (and (and (and (and (and (and (and (and (and (and (and (and (and (and (and (and (and (and (and (and (and (and (and (and (and (and (and (and (and (and (and (and (and (and (and (and (and (and (and (and (and (and (and (and (and (and (and (and (and (and (and (and (and (and (and (and (and (and (and (and (and (and (and (and (and (and (and (and (and (and (and (and (and (and (and (and (and (and (and (and (and (and (and (and (and (and (and (and (and (and (and (and (and (and (and (and (and (and (and (and (and (and (and (and (and (and (and (and (and (and (and (and (and (and (and (and (and (and (and (and (and (and (and (and (and (and (and (and (and (and (and (and (and (and (and (and (and (and (and (and (and (and (and (and (and (and (and (and (and (and (and (and (and (and (and (and (and (and (and (and (and (and (and (and (and (and (and (and (and (and (and (and (and (and (and (and (and (and (and (and (and (and (and (and (and (and (and (and (and (and (and (and (and (and (and (and (and (and (and (and (and (and (and (and (and (and (and (and (and (and (and (and (and (and (and (and (and (and (and (and (and (and (and (and (and (and (and (and (and (and (and (and (and (and (and (and (and (and (and (and (and (and (and (and (and (and (and (and (and (and (and (and (and (and (and (and (and (and (and (and (and (and (and (and (and (and (and (and (and (and (and (and (and (and (and (and (and (and (and (and (and (and (and (and (and (and (and (and (and (and (and (and (and (and (and (and (and (and (and (and (and (and (and (and (and (and (and (and (and (and (or (or ?v_1 ?v_190) ?v_32) (or (or ?v_180 ?v_0) ?v_69)) (or (or P23 ?v_132) P29)) (or (or ?v_0 ?v_20) ?v_10)) (or (or ?v_51 ?v_2) ?v_1)) (or (or P10 ?v_44) P0)) (or (or ?v_63 P38) ?v_6)) (or (or ?v_39 ?v_103) P19)) (or (or ?v_14 ?v_2) ?v_12)) (or (or ?v_37 ?v_23) P6)) (or (or ?v_117 ?v_34) P12)) (or (or P18 ?v_3) P1)) (or (or ?v_41 ?v_38) ?v_7)) (or (or ?v_4 ?v_4) ?v_156)) (or (or P27 ?v_19) ?v_121)) (or (or ?v_28 ?v_49) ?v_157)) (or (or ?v_56 ?v_5) ?v_35)) (or (or ?v_9 P7) ?v_7)) (or (or ?v_8 P12) P34)) (or (or ?v_181 ?v_76) ?v_9)) (or (or ?v_93 P10) ?v_52)) (or (or ?v_10 ?v_77) ?v_13)) (or (or ?v_58 P15) ?v_45)) (or (or ?v_54 P4) ?v_33)) (or (or ?v_125 ?v_12) ?v_13)) (or (or P24 ?v_14) P4)) (or (or ?v_15 ?v_65) ?v_30)) (or (or P25 ?v_66) ?v_48)) (or (or ?v_86 ?v_22) ?v_16)) (or (or ?v_62 ?v_68) ?v_17)) (or (or ?v_42 ?v_36) ?v_71)) (or (or ?v_19 ?v_174) ?v_206)) (or (or ?v_31 P9) ?v_20)) (or (or ?v_27 ?v_22) ?v_23)) (or (or ?v_24 P14) ?v_46)) (or (or P22 ?v_26) ?v_27)) (or (or ?v_43 ?v_17) ?v_74)) (or (or ?v_12 ?v_134) ?v_59)) (or (or ?v_30 ?v_31) ?v_32)) (or (or ?v_114 ?v_33) ?v_188)) (or (or ?v_34 ?v_35) ?v_108)) (or (or ?v_203 ?v_35) ?v_37)) (or (or ?v_100 ?v_38) ?v_39)) (or (or ?v_23 ?v_16) P1)) (or (or ?v_40 ?v_143) ?v_67)) (or (or P32 P35) ?v_84)) (or (or ?v_41 ?v_13) ?v_42)) (or (or ?v_27 ?v_10) ?v_8)) (or (or ?v_111 ?v_123) ?v_61)) (or (or P21 ?v_102) ?v_43)) (or (or ?v_44 ?v_60) P23)) (or (or P37 ?v_16) ?v_129)) (or (or ?v_45 ?v_37) P35)) (or (or ?v_35 ?v_94) P33)) (or (or ?v_183 ?v_40) ?v_48)) (or (or ?v_49 ?v_50) ?v_72)) (or (or ?v_39 P39) ?v_4)) (or (or P12 ?v_75) ?v_57)) (or (or ?v_104 ?v_12) ?v_82)) (or (or ?v_167 P25) ?v_64)) (or (or ?v_99 ?v_144) ?v_52)) (or (or ?v_70 ?v_85) P24)) (or (or ?v_52 ?v_44) ?v_53)) (or (or ?v_136 ?v_19) ?v_147)) (or (or P10 ?v_55) ?v_2)) (or (or ?v_5 ?v_56) ?v_105)) (or (or ?v_57 ?v_32) ?v_141)) (or (or ?v_166 ?v_126) ?v_97)) (or (or ?v_153 ?v_30) ?v_122)) (or (or ?v_34 ?v_152) ?v_158)) (or (or ?v_61 P11) ?v_194)) (or (or ?v_73 ?v_43) ?v_1)) (or (or ?v_137 ?v_53) ?v_51)) (or (or P14 ?v_64) P20)) (or (or ?v_207 ?v_65) ?v_155)) (or (or ?v_66 ?v_54) ?v_61)) (or (or ?v_67 P29) ?v_36)) (or (or ?v_68 ?v_12) ?v_87)) (or (or ?v_88 ?v_69) ?v_70)) (or (or ?v_71 ?v_19) ?v_27)) (or (or P26 P24) ?v_22)) (or (or ?v_72 ?v_50) P23)) (or (or ?v_4 P25) ?v_73)) (or (or ?v_118 ?v_74) ?v_75)) (or (or ?v_62 ?v_98) P15)) (or (or ?v_43 P29) ?v_57)) (or (or ?v_178 ?v_81) P26)) (or (or ?v_53 ?v_76) ?v_28)) (or (or ?v_89 ?v_39) ?v_4)) (or (or ?v_77 ?v_71) P19)) (or (or P1 ?v_73) P4)) (or (or ?v_78 ?v_79) ?v_200)) (or (or ?v_78 ?v_195) ?v_80)) (or (or ?v_8 P23) ?v_81)) (or (or ?v_124 ?v_83) ?v_112)) (or (or ?v_13 ?v_6) ?v_67)) (or (or ?v_187 P6) ?v_30)) (or (or ?v_85 ?v_0) ?v_24)) (or (or ?v_86 ?v_87) ?v_88)) (or (or ?v_89 ?v_120) ?v_77)) (or (or ?v_85 P34) ?v_34)) (or (or P17 ?v_90) ?v_168)) (or (or ?v_55 P37) ?v_66)) (or (or ?v_61 ?v_91) ?v_92)) (or (or ?v_6 ?v_10) ?v_93)) (or (or ?v_94 ?v_53) ?v_115)) (or (or ?v_139 ?v_135) ?v_97)) (or (or P9 ?v_43) ?v_98)) (or (or ?v_99 ?v_70) ?v_154)) (or (or P30 ?v_10) ?v_107)) (or (or ?v_151 ?v_54) ?v_8)) (or (or ?v_101 ?v_102) ?v_150)) (or (or ?v_104 ?v_60) ?v_74)) (or (or ?v_105 ?v_37) ?v_23)) (or (or P22 ?v_106) ?v_69)) (or (or ?v_107 ?v_1) ?v_149)) (or (or P33 ?v_34) ?v_108)) (or (or P11 ?v_109) ?v_110)) (or (or ?v_106 ?v_81) P22)) (or (or ?v_33 P32) P33)) (or (or ?v_81 ?v_30) ?v_111)) (or (or ?v_112 P29) ?v_113)) (or (or ?v_56 ?v_15) ?v_114)) (or (or ?v_115 ?v_92) ?v_116)) (or (or ?v_39 ?v_92) P33)) (or (or ?v_6 ?v_40) ?v_117)) (or (or ?v_115 ?v_91) ?v_14)) (or (or ?v_40 ?v_118) ?v_57)) (or (or ?v_55 ?v_119) ?v_44)) (or (or ?v_186 ?v_121) ?v_61)) (or (or ?v_6 ?v_122) ?v_1)) (or (or ?v_22 ?v_44) P8)) (or (or ?v_31 ?v_34) P33)) (or (or ?v_128 ?v_111) ?v_53)) (or (or ?v_30 ?v_124) ?v_7)) (or (or ?v_12 ?v_125) ?v_133)) (or (or ?v_59 ?v_94) ?v_146)) (or (or ?v_126 ?v_127) ?v_98)) (or (or P0 ?v_66) ?v_131)) (or (or ?v_70 ?v_127) ?v_28)) (or (or ?v_159 ?v_138) ?v_128)) (or (or ?v_124 ?v_129) ?v_173)) (or (or ?v_130 ?v_86) ?v_148)) (or (or ?v_132 ?v_64) ?v_7)) (or (or ?v_61 P3) ?v_100)) (or (or ?v_133 ?v_22) ?v_124)) (or (or P15 ?v_75) ?v_44)) (or (or ?v_127 ?v_134) ?v_49)) (or (or ?v_135 P27) ?v_136)) (or (or ?v_66 ?v_165) ?v_137)) (or (or P29 P3) ?v_138)) (or (or ?v_32 ?v_20) ?v_86)) (or (or ?v_22 P16) ?v_124)) (or (or ?v_31 ?v_80) ?v_67)) (or (or P0 ?v_12) ?v_139)) (or (or ?v_61 ?v_140) ?v_82)) (or (or ?v_49 ?v_52) ?v_48)) (or (or ?v_64 P37) ?v_141)) (or (or ?v_131 ?v_142) ?v_143)) (or (or P14 ?v_22) ?v_16)) (or (or ?v_102 P38) ?v_144)) (or (or ?v_145 ?v_54) ?v_146)) (or (or ?v_147 ?v_148) ?v_24)) (or (or P1 ?v_53) ?v_149)) (or (or ?v_150 ?v_40) P6)) (or (or P25 ?v_151) ?v_152)) (or (or P27 ?v_160) ?v_93)) (or (or ?v_153 ?v_24) ?v_9)) (or (or ?v_115 ?v_108) ?v_63)) (or (or P26 ?v_32) ?v_132)) (or (or ?v_12 ?v_45) ?v_84)) (or (or ?v_92 ?v_45) ?v_113)) (or (or P19 ?v_135) ?v_154)) (or (or ?v_4 ?v_86) P26)) (or (or ?v_141 ?v_155) ?v_58)) (or (or ?v_135 ?v_184) ?v_161)) (or (or ?v_70 ?v_158) ?v_78)) (or (or ?v_159 ?v_160) ?v_161)) (or (or ?v_69 ?v_104) ?v_156)) (or (or P31 ?v_154) ?v_162)) (or (or ?v_86 ?v_68) P38)) (or (or ?v_139 ?v_70) ?v_10)) (or (or ?v_163 ?v_41) ?v_155)) (or (or ?v_113 ?v_17) ?v_34)) (or (or ?v_160 ?v_164) P5)) (or (or ?v_26 ?v_165) ?v_166)) (or (or ?v_179 ?v_139) ?v_163)) (or (or ?v_12 ?v_113) ?v_157)) (or (or ?v_119 ?v_39) P21)) (or (or ?v_64 ?v_92) ?v_167)) (or (or ?v_136 ?v_168) ?v_172)) (or (or ?v_176 ?v_94) ?v_55)) (or (or ?v_149 ?v_101) ?v_123)) (or (or ?v_63 ?v_72) ?v_182)) (or (or P1 ?v_8) ?v_69)) (or (or ?v_133 P2) ?v_171)) (or (or ?v_165 P38) P23)) (or (or ?v_1 ?v_132) ?v_172)) (or (or ?v_79 ?v_152) ?v_177)) (or (or ?v_22 ?v_131) ?v_103)) (or (or ?v_35 ?v_131) ?v_164)) (or (or ?v_71 ?v_145) ?v_117)) (or (or ?v_24 ?v_17) ?v_108)) (or (or ?v_37 ?v_115) ?v_4)) (or (or ?v_64 ?v_147) ?v_173)) (or (or P4 ?v_4) ?v_56)) (or (or ?v_197 ?v_160) ?v_76)) (or (or ?v_77 ?v_78) P27)) (or (or ?v_117 ?v_124) ?v_84)) (or (or ?v_174 P37) ?v_104)) (or (or ?v_86 ?v_61) ?v_22)) (or (or ?v_202 P11) ?v_44)) (or (or ?v_171 P12) ?v_90)) (or (or ?v_125 ?v_48) P35)) (or (or ?v_175 P16) ?v_46)) (or (or ?v_176 ?v_78) ?v_8)) (or (or ?v_58 ?v_94) ?v_26)) (or (or ?v_177 ?v_2) P16)) (or (or ?v_55 ?v_133) ?v_160)) (or (or ?v_79 ?v_112) ?v_161)) (or (or ?v_57 ?v_0) P28)) (or (or P23 P23) ?v_69)) (or (or ?v_30 ?v_45) ?v_124)) (or (or ?v_178 ?v_174) P7)) (or (or ?v_7 ?v_91) P38)) (or (or ?v_151 ?v_179) ?v_118)) (or (or ?v_106 ?v_79) ?v_136)) (or (or ?v_65 ?v_67) ?v_24)) (or (or ?v_175 ?v_43) ?v_8)) (or (or ?v_180 ?v_16) ?v_42)) (or (or ?v_151 ?v_124) P12)) (or (or ?v_94 ?v_86) ?v_153)) (or (or ?v_147 ?v_155) ?v_131)) (or (or ?v_104 ?v_126) ?v_61)) (or (or ?v_161 ?v_31) ?v_193)) (or (or ?v_82 ?v_87) ?v_113)) (or (or P27 P22) P33)) (or (or ?v_82 ?v_131) ?v_153)) (or (or ?v_103 ?v_113) ?v_133)) (or (or P3 ?v_116) ?v_161)) (or (or ?v_93 ?v_141) ?v_111)) (or (or P24 ?v_181) ?v_145)) (or (or ?v_63 ?v_100) ?v_36)) (or (or ?v_36 ?v_180) P17)) (or (or ?v_129 ?v_182) P18)) (or (or ?v_180 ?v_37) ?v_183)) (or (or ?v_114 ?v_78) ?v_79)) (or (or ?v_39 ?v_79) ?v_116)) (or (or ?v_88 ?v_56) ?v_192)) (or (or ?v_20 ?v_53) ?v_107)) (or (or ?v_12 ?v_65) P5)) (or (or ?v_7 ?v_15) ?v_22)) (or (or ?v_184 ?v_164) P2)) (or (or ?v_185 ?v_184) ?v_63)) (or (or ?v_76 ?v_22) P19)) (or (or ?v_41 P16) ?v_135)) (or (or ?v_125 ?v_75) ?v_113)) (or (or ?v_115 P39) ?v_135)) (or (or ?v_20 ?v_163) ?v_174)) (or (or ?v_125 ?v_54) ?v_159)) (or (or ?v_186 ?v_180) ?v_184)) (or (or ?v_80 ?v_110) ?v_82)) (or (or ?v_20 ?v_94) P0)) (or (or ?v_157 ?v_186) ?v_174)) (or (or P12 ?v_100) ?v_16)) (or (or ?v_61 ?v_2) ?v_123)) (or (or ?v_187 ?v_98) P8)) (or (or ?v_178 P35) ?v_15)) (or (or ?v_175 ?v_104) P28)) (or (or P6 P33) ?v_55)) (or (or ?v_116 ?v_148) ?v_188)) (or (or ?v_20 ?v_46) ?v_26)) (or (or ?v_46 ?v_189) ?v_64)) (or (or ?v_90 ?v_10) ?v_126)) (or (or ?v_10 ?v_27) ?v_28)) (or (or ?v_136 ?v_85) ?v_147)) (or (or ?v_172 ?v_16) ?v_74)) (or (or P10 ?v_109) ?v_24)) (or (or ?v_68 ?v_73) ?v_158)) (or (or ?v_27 ?v_103) ?v_181)) (or (or ?v_118 ?v_37) ?v_33)) (or (or ?v_159 (not ?v_67)) ?v_183)) (or (or ?v_48 P8) P3)) (or (or ?v_155 ?v_64) ?v_168)) (or (or ?v_48 ?v_190) P39)) (or (or ?v_163 ?v_191) ?v_192)) (or (or ?v_54 ?v_41) ?v_178)) (or (or ?v_27 P5) ?v_5)) (or (or ?v_175 ?v_155) ?v_201)) (or (or ?v_110 ?v_41) P33)) (or (or ?v_69 ?v_100) ?v_141)) (or (or ?v_163 ?v_51) ?v_122)) (or (or ?v_196 ?v_161) ?v_60)) (or (or ?v_179 ?v_159) ?v_58)) (or (or ?v_98 ?v_105) P25)) (or (or ?v_60 ?v_27) ?v_99)) (or (or ?v_112 ?v_193) ?v_80)) (or (or ?v_74 ?v_12) ?v_49)) (or (or P36 P21) ?v_135)) (or (or ?v_51 ?v_136) ?v_167)) (or (or ?v_20 P21) ?v_134)) (or (or ?v_198 ?v_71) ?v_33)) (or (or ?v_55 P6) ?v_116)) (or (or ?v_17 ?v_9) ?v_2)) (or (or ?v_78 ?v_184) ?v_195)) (or (or ?v_76 P36) ?v_196)) (or (or P36 ?v_79) ?v_4)) (or (or ?v_92 ?v_59) ?v_14)) (or (or P14 ?v_50) ?v_152)) (or (or ?v_151 P18) P29)) (or (or ?v_166 ?v_78) ?v_134)) (or (or ?v_137 ?v_31) ?v_163)) (or (or ?v_163 ?v_188) ?v_181)) (or (or ?v_197 ?v_151) P35)) (or (or ?v_106 ?v_33) ?v_128)) (or (or ?v_8 ?v_195) ?v_30)) (or (or ?v_102 ?v_178) ?v_198)) (or (or P8 ?v_193) ?v_145)) (or (or ?v_130 ?v_144) ?v_147)) (or (or ?v_89 ?v_44) ?v_177)) (or (or ?v_90 P12) P7)) (or (or ?v_7 ?v_86) ?v_37)) (or (or P12 P10) ?v_38)) (or (or ?v_149 ?v_54) ?v_129)) (or (or ?v_185 ?v_199) P31)) (or (or ?v_59 P11) ?v_76)) (or (or ?v_35 ?v_109) ?v_139)) (or (or ?v_7 ?v_20) ?v_8)) (or (or ?v_12 ?v_192) ?v_130)) (or (or ?v_197 ?v_113) ?v_115)) (or (or P15 ?v_17) P25)) (or (or ?v_14 P10) ?v_150)) (or (or P5 ?v_183) ?v_136)) (or (or ?v_48 ?v_69) ?v_200)) (or (or ?v_35 ?v_108) ?v_34)) (or (or ?v_131 ?v_164) ?v_167)) (or (or ?v_35 ?v_114) ?v_129)) (or (or ?v_199 P35) ?v_35)) (or (or ?v_126 ?v_151) ?v_64)) (or (or ?v_138 ?v_179) ?v_88)) (or (or P11 ?v_14) ?v_3)) (or (or ?v_201 ?v_165) ?v_112)) (or (or ?v_58 ?v_165) ?v_50)) (or (or ?v_24 ?v_110) ?v_100)) (or (or ?v_84 ?v_19) ?v_87)) (or (or ?v_178 ?v_9) P16)) (or (or ?v_191 P16) ?v_178)) (or (or ?v_194 ?v_44) ?v_99)) (or (or ?v_33 ?v_157) P27)) (or (or ?v_133 ?v_19) ?v_178)) (or (or P12 ?v_186) ?v_180)) (or (or ?v_40 ?v_184) P28)) (or (or ?v_64 ?v_35) P31)) (or (or ?v_176 ?v_53) ?v_202)) (or (or ?v_88 ?v_150) P10)) (or (or ?v_100 ?v_118) P10)) (or (or P17 ?v_128) ?v_55)) (or (or P37 ?v_171) ?v_155)) (or (or ?v_105 ?v_148) ?v_144)) (or (or ?v_187 ?v_57) ?v_181)) (or (or ?v_127 ?v_198) ?v_93)) (or (or ?v_105 P33) ?v_2)) (or (or ?v_73 ?v_152) ?v_192)) (or (or ?v_41 P26) ?v_3)) (or (or ?v_123 ?v_7) ?v_176)) (or (or ?v_81 P37) ?v_158)) (or (or ?v_23 ?v_105) ?v_8)) (or (or ?v_112 ?v_135) ?v_87)) (or (or ?v_153 ?v_185) P29)) (or (or ?v_98 P15) ?v_48)) (or (or ?v_159 ?v_148) P25)) (or (or ?v_182 ?v_132) ?v_55)) (or (or P30 P22) P21)) (or (or ?v_117 ?v_171) ?v_50)) (or (or ?v_149 ?v_90) P33)) (or (or ?v_126 ?v_125) ?v_116)) (or (or ?v_30 ?v_115) ?v_69)) (or (or P2 ?v_174) ?v_6)) (or (or P36 ?v_102) ?v_6)) (or (or P2 ?v_154) ?v_167)) (or (or ?v_155 ?v_199) ?v_8)) (or (or ?v_9 ?v_7) ?v_111)) (or (or ?v_197 P9) ?v_42)) (or (or ?v_99 P37) ?v_200)) (or (or ?v_109 ?v_32) ?v_42)) (or (or ?v_49 ?v_122) ?v_181)) (or (or ?v_187 P30) ?v_9)) (or (or ?v_133 ?v_144) ?v_57)) (or (or ?v_202 ?v_23) ?v_24)) (or (or ?v_164 ?v_19) ?v_77)) (or (or ?v_122 ?v_121) ?v_164)) (or (or ?v_44 ?v_200) ?v_149)) (or (or P18 ?v_152) ?v_98)) (or (or ?v_141 ?v_87) ?v_51)) (or (or ?v_89 ?v_165) ?v_22)) (or (or ?v_44 ?v_109) ?v_168)) (or (or ?v_58 ?v_112) ?v_31)) (or (or ?v_161 P30) ?v_37)) (or (or ?v_64 ?v_127) ?v_204)) (or (or ?v_7 ?v_41) ?v_19)) (or (or ?v_144 P38) ?v_38)) (or (or ?v_87 ?v_77) ?v_42)) (or (or ?v_43 ?v_83) ?v_50)) (or (or ?v_108 ?v_129) ?v_16)) (or (or P12 ?v_81) ?v_42)) (or (or ?v_135 ?v_162) P11)) (or (or ?v_65 ?v_123) ?v_85)) (or (or ?v_19 ?v_59) P22)) (or (or P21 ?v_197) ?v_117)) (or (or ?v_148 P20) P6)) (or (or ?v_134 ?v_65) ?v_183)) (or (or ?v_194 ?v_111) ?v_103)) (or (or P18 ?v_164) P25)) (or (or ?v_130 ?v_183) ?v_135)) (or (or ?v_9 ?v_132) ?v_52)) (or (or ?v_145 P6) ?v_175)) (or (or ?v_88 P36) ?v_32)) (or (or ?v_145 P31) ?v_187)) (or (or ?v_112 ?v_203) ?v_54)) (or (or ?v_52 ?v_198) ?v_80)) (or (or P16 P1) ?v_149)) (or (or ?v_49 ?v_162) ?v_186)) (or (or ?v_81 ?v_192) ?v_38)) (or (or ?v_132 P2) ?v_59)) (or (or ?v_153 ?v_157) ?v_62)) (or (or P15 ?v_204) ?v_1)) (or (or ?v_190 ?v_42) ?v_62)) (or (or ?v_192 ?v_39) ?v_197)) (or (or ?v_190 ?v_110) ?v_23)) (or (or ?v_112 ?v_162) ?v_173)) (or (or ?v_4 ?v_98) ?v_52)) (or (or ?v_130 ?v_13) ?v_137)) (or (or ?v_67 ?v_147) ?v_91)) (or (or ?v_51 ?v_31) ?v_52)) (or (or ?v_60 ?v_97) ?v_13)) (or (or ?v_195 ?v_171) ?v_177)) (or (or ?v_103 ?v_109) ?v_175)) (or (or ?v_16 ?v_114) P29)) (or (or P6 ?v_42) P20)) (or (or ?v_205 P7) ?v_15)) (or (or ?v_166 P13) ?v_82)) (or (or ?v_17 ?v_45) ?v_205)) (or (or P32 ?v_172) ?v_162)) (or (or ?v_157 ?v_7) ?v_38)) (or (or P3 P6) P17)) (or (or ?v_76 ?v_138) ?v_0)) (or (or ?v_16 ?v_178) ?v_91)) (or (or ?v_190 P16) ?v_185)) (or (or ?v_84 P36) ?v_75)) (or (or ?v_17 ?v_141) ?v_190)) (or (or ?v_153 P29) ?v_2)) (or (or ?v_7 ?v_194) ?v_81)) (or (or ?v_9 ?v_74) ?v_173)) (or (or ?v_68 ?v_43) ?v_7)) (or (or P1 ?v_158) (not ?v_206))) (or (or ?v_60 ?v_35) P17)) (or (or ?v_103 ?v_69) P17)) (or (or ?v_37 ?v_9) ?v_73)) (or (or ?v_154 ?v_165) ?v_33)) (or (or ?v_114 ?v_143) ?v_201)) (or (or P2 ?v_9) ?v_45)) (or (or ?v_94 ?v_27) P21)) (or (or ?v_90 ?v_15) ?v_108)) (or (or P18 P35) ?v_65)) (or (or P23 ?v_39) ?v_165)) (or (or ?v_38 P32) P26)) (or (or P20 ?v_111) ?v_5)) (or (or ?v_66 ?v_92) ?v_156)) (or (or ?v_28 ?v_156) P37)) (or (or ?v_27 ?v_48) P20)) (or (or ?v_123 ?v_40) P17)) (or (or ?v_7 P31) ?v_135)) (or (or P33 ?v_40) ?v_150)) (or (or ?v_183 ?v_155) ?v_91)) (or (or ?v_108 ?v_204) P28)) (or (or ?v_133 P15) ?v_161)) (or (or ?v_61 ?v_127) ?v_42)) (or (or ?v_207 ?v_37) ?v_183)) (or (or ?v_94 ?v_110) ?v_20)) (or (or ?v_172 ?v_71) ?v_79)))))))))))))))))))))))))))))
(check-sat)
(exit)
